38 38
19
3 3   4 28
4 3   3 0 
3 5   0 0 
3 6   4 22
3 7   7 13
3 8   0 5 
3 9   0 13
10 3   4 35
3 11  7 20
3 13  7 0 
4 3   10 20
4 5   10 15
6 4   4 31
4 8   3 14
4 11  3 3 
4 12  10 23
4 15  10 0 
4 16  0 22
24 38  14 0 
